32	4
18	20	12	17
0	0	0	0	0	9	2	3	4	5	6	7	8	9	13
2	9	0	0	8	4	10	11	14	17
4	0	0	1	1	3	10	11	19
8	9	6	0	0	3	10	11	12
8	0	0	1	5	3	10	11	17
5	1	0	0	17	4	11	15	16	19
1	0	1	0	9	3	11	15	16
2	0	0	1	13	5	17	18	19	20	21
3	1	0	12	0	4	15	16	18	31
5	15	0	0	14	3	15	16	21
3	17	0	1	0	4	18	20	21	22
4	8	0	1	0	5	18	21	22	27	30
7	0	6	0	6	4	18	19	21	27
7	15	0	0	5	5	20	22	28	29	31
2	0	13	2	0	3	20	22	29
9	0	12	7	0	5	23	26	27	28	30
9	0	0	10	6	3	22	26	28
9	0	1	7	0	3	23	26	28
3	0	14	0	1	2	22	26
6	0	0	5	12	4	25	26	27	30
6	14	10	0	0	4	24	26	29	31
9	0	16	11	0	1	23
2	0	0	11	16	2	24	25
4	12	0	0	8	1	32
5	6	13	0	0	1	32
6	0	10	12	0	1	32
3	4	8	0	0	1	32
8	8	13	0	0	1	32
5	0	20	0	7	1	32
7	2	0	8	0	1	32
6	14	7	0	0	1	32
0	0	0	0	0	0
